CARROOOOOOOOOOCAAAAAAAAAAAAAA
Tried aggregator 1 time.
MIP Presolve eliminated 0 rows and 1 columns.
Reduced MIP has 35835 rows, 100 columns, and 143340 nonzeros.
Reduced MIP has 100 binaries, 0 generals, 0 SOSs, and 0 indicators.
Probing time =    0.00 sec.
Tried aggregator 1 time.
Presolve time =    0.08 sec.
Found feasible solution after 0.09 sec.  Objective = 100.0000
Probing time =    0.00 sec.
MIP emphasis: balance optimality and feasibility.
MIP search method: dynamic search.
Parallel mode: none, using 1 thread.
Root relaxation solution time =    0.20 sec.

        Nodes                                         Cuts/
   Node  Left     Objective  IInf  Best Integer    Best Bound    ItCnt     Gap

*     0+    0                          100.0000                    428     --- 
      0     0       25.0000   100      100.0000       25.0000      428   75.00%
*     0+    0                           51.0000       25.0000      428   50.98%
      0     0       25.8785   100       51.0000     Cuts: 267      607   49.26%
      0     0       26.4476   100       51.0000     Cuts: 177      787   48.14%
      0     0       26.7778   100       51.0000 ZeroHalf: 191      922   47.49%
      0     0       27.1255   100       51.0000 ZeroHalf: 115     1079   46.81%
      0     0       27.3647    91       51.0000  ZeroHalf: 85     1203   46.34%
*     0+    0                           39.0000       27.3647     1203   29.83%
      0     0       27.4434   100       39.0000  ZeroHalf: 43     1309   29.63%
      0     0       27.5703   100       39.0000  ZeroHalf: 87     1416   29.31%
      0     0       27.6706   100       39.0000  ZeroHalf: 20     1517   29.05%
      0     0       27.7840   100       39.0000  ZeroHalf: 37     1651   28.76%
      0     0       27.8236   100       39.0000  ZeroHalf: 28     1741   28.66%
      0     0       27.8778   100       39.0000  ZeroHalf: 12     1832   28.52%
      0     0       27.9263   100       39.0000  ZeroHalf: 19     1918   28.39%
      0     0       27.9894   100       39.0000  ZeroHalf: 31     2043   28.23%
      0     0       28.0143   100       39.0000  ZeroHalf: 14     2101   28.17%
      0     0       28.0722    95       39.0000   ZeroHalf: 9     2168   28.02%
      0     0       28.2047   100       39.0000  ZeroHalf: 16     2282   27.68%
      0     0       28.2309   100       39.0000  ZeroHalf: 30     2338   27.61%
*     0+    0                           37.0000       28.2309     2338   23.70%
      0     0       28.2521   100       37.0000  ZeroHalf: 15     2393   23.64%
      0     0       28.2877   100       37.0000  ZeroHalf: 19     2470   23.55%
      0     0       28.3632   100       37.0000  ZeroHalf: 12     2570   23.34%
      0     0       28.3848   100       37.0000  ZeroHalf: 17     2629   23.28%
      0     0       28.3974   100       37.0000  ZeroHalf: 24     2691   23.25%
      0     0       28.4315   100       37.0000  ZeroHalf: 17     2767   23.16%
      0     0       28.4570   100       37.0000  ZeroHalf: 25     2876   23.09%
      0     0       28.5088   100       37.0000  ZeroHalf: 33     2967   22.95%
      0     0       28.5373   100       37.0000  ZeroHalf: 51     3047   22.87%
      0     0       28.5726   100       37.0000  ZeroHalf: 18     3152   22.78%
      0     0       28.5852   100       37.0000  ZeroHalf: 15     3223   22.74%
      0     0       28.6142   100       37.0000  ZeroHalf: 24     3304   22.66%
      0     0       28.6216   100       37.0000   ZeroHalf: 7     3365   22.64%
      0     0       28.6348   100       37.0000   ZeroHalf: 4     3415   22.61%
      0     0       28.6648   100       37.0000  ZeroHalf: 10     3485   22.53%
      0     0       28.7226   100       37.0000  ZeroHalf: 22     3598   22.37%
      0     0       28.7502   100       37.0000  ZeroHalf: 12     3680   22.30%
      0     0       28.7825   100       37.0000  ZeroHalf: 50     3777   22.21%
      0     0       28.8035   100       37.0000  ZeroHalf: 15     3840   22.15%
      0     0       28.8175   100       37.0000   ZeroHalf: 4     3902   22.11%
      0     0       28.8283   100       37.0000   ZeroHalf: 6     3958   22.09%
      0     2       28.8283   100       37.0000       28.8284     3958   22.09%
Elapsed real time =  75.77 sec. (tree size =  0.00 MB, solutions = 4)
      2     4       29.7891    98       37.0000       28.8528     4814   22.02%
      4     6       29.5760    84       37.0000       28.8599     5073   22.00%
      5     7       32.6250    76       37.0000       28.8621     6464   21.99%
      6     8       29.0665    82       37.0000       29.0665     7168   21.44%
      7     9       29.3300    78       37.0000       29.0673     7811   21.44%
      8    10       32.1558    77       37.0000       29.3302     8678   20.73%
     10    12       32.0045    74       37.0000       29.5799     9539   20.05%
     12    14       30.4206    75       37.0000       29.5799     9963   20.05%
     14    16       32.5000    57       37.0000       29.5799    10279   20.05%
     19    21       32.0000    66       37.0000       29.5799    11664   20.05%
Elapsed real time =  81.05 sec. (tree size =  2.55 MB, solutions = 4)
     25    27       35.5000    49       37.0000       29.5799    12975   20.05%
*    36    26      integral     0       36.0000       29.5799    13467   17.83%
     44    26       29.9356    82       36.0000       29.7895    14673   17.25%
     48    30       31.4167    70       36.0000       29.7895    16092   17.25%
     59    38       30.2350    93       36.0000       29.7903    17621   17.25%
     65    44       32.9583    80       36.0000       29.7903    19053   17.25%
     72    47       32.2789    94       36.0000       29.9460    20694   16.82%
     79    50       31.8958    88       36.0000       30.2359    22353   16.01%
     89    52       31.6881    89       36.0000       30.4115    23897   15.52%
     93    56       34.3793    79       36.0000       30.4115    24627   15.52%
Elapsed real time =  89.23 sec. (tree size =  2.30 MB, solutions = 5)
    100    59       34.6613    71       36.0000       30.4219    25497   15.49%
    112    63       30.9167    73       36.0000       30.5973    26694   15.01%
    124    71       33.1667    86       36.0000       30.6571    28031   14.84%
    134    73        cutoff             36.0000       30.9156    29329   14.12%
*   136+   42                           34.0000       30.9156    29429    9.07%
    140    41       32.5714    71       34.0000       31.1518    30266    8.38%
    149    40       31.8953    72       34.0000       31.3986    31633    7.65%
    157    38        cutoff             34.0000       31.7023    32904    6.76%
    172    30       32.6452    74       34.0000       32.1766    34290    5.36%
    192    13       33.0000    76       34.0000       32.6275    35454    4.04%

Zero-half cuts applied:  65

Root node processing (before b&c):
  Real time             =   75.69
Sequential b&c:
  Real time             =   20.39
                          -------
Total (root+branch&cut) =   96.08 sec.
Nodes: 208
OBJ: 34
1 0 0 0 1 1 1 0 0 1 1 1 1 1 0 1 0 0 0 1 0 0 1 0 1 1 1 0 1 1 0 0 1 0 1 1 1 0 0 1 1 1 1 1 1 1 1 0 0 0 0 0 1 0 1 1 1 1 1 1 0 1 1 0 1 1 1 1 1 1 0 1 1 0 1 1 1 0 0 1 0 1 1 1 1 1 0 1 1 1 1 0 1 1 1 1 1 1 0 1 
